
  22   10
  10   10   10   10   10   10   10   10   10   10

   0   0   0   0   0   0   0   0   0   0   0   2 2 20 
   6  10   0   0   0   0   0   0   0   0   0   1 3 
   9   0   0   0  10   0   0   0   0   0   0   1 4 
   4   0   0   0   0   0   0  10   0   0   0   1 5 
   2   0   0   0   0   0   0   0   0   0  10   1 6 
   5   0  10   0   0   0   0   0   0   0   0   1 7 
   1   0   0   0   0   0   0   0   0  10   0   1 8 
   2  10   0   0   0   0   0   0   0   0   0   1 9 
   3  10   0   0   0   0   0   0   0   0   0   1 10 
   5   0   0   0   0   0   0   0   0  10   0   1 11 
   4   0   0   0  10   0   0   0   0   0   0   1 12 
   5   0   0   0   0   0   0  10   0   0   0   1 13 
   1  10   0   0   0   0   0   0   0   0   0   1 14 
   2   0   0   0   0   0   0   0  10   0   0   2 17 15 
   7   0   0   0   0   0   0  10   0   0   0   1 16 
   9   0   0  10   0   0   0   0   0   0   0   1 18 
  10   0   0   0   0   0   0   0   0   0  10   1 18 
   3   0   0   0   0   0   0   0   0  10   0   1 19 
   5   0   0   0   0  10   0   0   0   0   0   1 21 
   2   0   0   0   0   0   0   0   0  10   0   1 21 
   4   0   0   0   0   0   0  10   0   0   0   1 22
   0   0   0   0   0   0   0   0   0   0   0   0 
